webassembly/ejemplos_dzn/11/folder11_json_60.dzn
TERM = { '.', 's(2)', 's(5)', 's(4)', 'in_1', 'local_1', 'in_6', 'in_2', 'in_4', 'in_3', 's(1)', 's(0)', 'in_7', 'in_5', 's(3)', 'in_0'};
null = '.';
s = 11;
n = 13;
ndeps = 6;
max_registers_sz = 3;
NR = 0;
registers = [| |];
dependencies = [|'i32.store16_0', 'i32.store8_1', |'i32.store8_1', 'i32.load16_s_2', |'i32.load16_s_2', 'i32.store16_6', |'i32.store16_6', 'i32.load16_s_7', |'i32.store16_6', 'i32.load16_u_8', |'i32.store16_6', 'i32.load8_s_9'|];
GET_ENUM = { GET1, GET2, GET3};
SET_ENUM = { SET1, SET2, SET3};
TEE_ENUM = { TEE1, TEE2, TEE3};
N = 10;
OP = { 'i32.add_0', 'i32.store16_0', 'i32.store8_1', 'i32.load16_s_2', 'i32.sub_0', 'i32.store16_6', 'i32.load16_s_7', 'i32.load16_u_8', 'i32.load8_s_9', 'local.get_0' };
in_ops = [2, 2, 2, 1, 2, 2, 1, 1, 1, 0 ];
out_ops = [1, 0, 0, 1, 1, 0, 1, 1, 1, 1 ];
in1 = ['s(4)', 'in_0', 'in_2', 'in_4', 'local_1', 's(1)', 'in_6', 's(2)', 's(3)', '.' ];
in2 = ['in_7', 'in_1', 'in_3', '.', 's(0)', 'in_5', '.', '.', '.', '.' ];
in3 = ['.', '.', '.', '.', '.', '.', '.', '.', '.', '.' ];
out1 = ['s(5)', '.', '.', 's(0)', 's(1)', '.', 's(2)', 's(3)', 's(4)', 'local_1' ];
out2 = ['.', '.', '.', '.', '.', '.', '.', '.', '.', '.' ];
out3 = ['.', '.', '.', '.', '.', '.', '.', '.', '.', '.' ];
comm = [true, false, false, false, false, false, false, false, false, false ];
gas = [1, 1, 1, 1, 1, 1, 1, 1, 1, 1 ];
sz = [1, 1, 1, 1, 1, 1, 1, 1, 1, 1 ];
stor = [false, true, true, false, false, true, false, false, false, false ];
lb = [ 1, 1, 1, 1, 1, 1, 1, 1, 1, 1 ];
ub = [ 11, 11, 11, 11, 11, 11, 11, 11, 11, 11 ];
startstack = [ 'in_0', 'in_1', 'in_2', 'in_3', 'in_4', 'in_5', 'in_6', 'in_7', null, null, null, null, null ];
endstack = [ 's(5)', null, null, null, null, null, null, null, null, null, null, null, null ];
