webassembly/ejemplos_results/folder11_json_60.txt
value = 11;
fgas = [1, 1, 1, 1, 1, 1, 1, 1, 1, 1, 1];
fsize = [1, 1, 1, 1, 1, 1, 1, 1, 1, 1, 1];
states = 
[|    in_0,   in_1, in_2, in_3, in_4, in_5, in_6, in_7, '.', '.', '.', '.', '.'
 |    in_2,   in_3, in_4, in_5, in_6, in_7,  '.',  '.', '.', '.', '.', '.', '.'
 |    in_2,   in_3, in_4, in_5, in_6, in_7,  '.',  '.', '.', '.', '.', '.', '.'
 |    in_4,   in_5, in_6, in_7,  '.',  '.',  '.',  '.', '.', '.', '.', '.', '.'
 |  's(0)',   in_5, in_6, in_7,  '.',  '.',  '.',  '.', '.', '.', '.', '.', '.'
 | local_1, 's(0)', in_5, in_6, in_7,  '.',  '.',  '.', '.', '.', '.', '.', '.'
 |  's(1)',   in_5, in_6, in_7,  '.',  '.',  '.',  '.', '.', '.', '.', '.', '.'
 |    in_6,   in_7,  '.',  '.',  '.',  '.',  '.',  '.', '.', '.', '.', '.', '.'
 |  's(2)',   in_7,  '.',  '.',  '.',  '.',  '.',  '.', '.', '.', '.', '.', '.'
 |  's(3)',   in_7,  '.',  '.',  '.',  '.',  '.',  '.', '.', '.', '.', '.', '.'
 |  's(4)',   in_7,  '.',  '.',  '.',  '.',  '.',  '.', '.', '.', '.', '.', '.'
 |  's(5)',    '.',  '.',  '.',  '.',  '.',  '.',  '.', '.', '.', '.', '.', '.'
 |];
register_states = 
[| '.', '.',  '.'
 | '.', '.',  '.'
 | '.', '.', in_2
 | '.', '.', in_2
 | '.', '.', in_2
 | '.', '.', in_2
 | '.', '.', in_2
 | '.', '.', in_2
 | '.', '.', in_2
 | '.', '.', in_2
 | '.', '.', in_2
 | '.', '.', in_2
 |];
program = [O('i32.store16_0'), TEE(TEE3), O('i32.store8_1'), O('i32.load16_s_2'), O('local.get_0'), O('i32.sub_0'), O('i32.store16_6'), O('i32.load16_s_7'), O('i32.load16_u_8'), O('i32.load8_s_9'), O('i32.add_0')];
% time elapsed: 0.43 s
----------
value = 10;
fgas = [1, 1, 1, 1, 1, 1, 1, 1, 1, 1, 0];
fsize = [1, 1, 1, 1, 1, 1, 1, 1, 1, 1, 1];
states = 
[|    in_0,   in_1, in_2, in_3, in_4, in_5, in_6, in_7, '.', '.', '.', '.', '.'
 |    in_2,   in_3, in_4, in_5, in_6, in_7,  '.',  '.', '.', '.', '.', '.', '.'
 |    in_4,   in_5, in_6, in_7,  '.',  '.',  '.',  '.', '.', '.', '.', '.', '.'
 |  's(0)',   in_5, in_6, in_7,  '.',  '.',  '.',  '.', '.', '.', '.', '.', '.'
 | local_1, 's(0)', in_5, in_6, in_7,  '.',  '.',  '.', '.', '.', '.', '.', '.'
 |  's(1)',   in_5, in_6, in_7,  '.',  '.',  '.',  '.', '.', '.', '.', '.', '.'
 |    in_6,   in_7,  '.',  '.',  '.',  '.',  '.',  '.', '.', '.', '.', '.', '.'
 |  's(2)',   in_7,  '.',  '.',  '.',  '.',  '.',  '.', '.', '.', '.', '.', '.'
 |  's(3)',   in_7,  '.',  '.',  '.',  '.',  '.',  '.', '.', '.', '.', '.', '.'
 |  's(4)',   in_7,  '.',  '.',  '.',  '.',  '.',  '.', '.', '.', '.', '.', '.'
 |  's(5)',    '.',  '.',  '.',  '.',  '.',  '.',  '.', '.', '.', '.', '.', '.'
 |  's(5)',    '.',  '.',  '.',  '.',  '.',  '.',  '.', '.', '.', '.', '.', '.'
 |];
register_states = 
[| '.', '.', '.'
 | '.', '.', '.'
 | '.', '.', '.'
 | '.', '.', '.'
 | '.', '.', '.'
 | '.', '.', '.'
 | '.', '.', '.'
 | '.', '.', '.'
 | '.', '.', '.'
 | '.', '.', '.'
 | '.', '.', '.'
 | '.', '.', '.'
 |];
program = [O('i32.store16_0'), O('i32.store8_1'), O('i32.load16_s_2'), O('local.get_0'), O('i32.sub_0'), O('i32.store16_6'), O('i32.load16_s_7'), O('i32.load16_u_8'), O('i32.load8_s_9'), O('i32.add_0'), NOP];
% time elapsed: 0.45 s
----------
==========
% time elapsed: 0.45 s
% [value > 9]
